
;this file is automatically generated: Fri Jan 03 16:26:56 GMT 2020

;declarations generated

(declare-fun oclExcludes ( Int Int) Bool)
(declare-fun Cardinality ( Int) Int)
(declare-fun class13_Class13IntAttr4 ( Int) Int)
(declare-fun class13_Class13IntAttr6 ( Int) Int)
(declare-fun class13_Class13IntAttr5 ( Int) Int)
(declare-fun obj_6c223fb6_64f6_4bfb_86f1_e2924b5647c6 ( Int) Int)
(declare-fun class13_Class13BoolAttr3 ( Int) Bool)
(declare-fun class13_Class13BoolAttr2 ( Int) Bool)
(declare-fun class13_Class13BoolAttr1 ( Int) Bool)
(declare-fun class13_Class13BoolAttr0 ( Int) Bool)
(declare-fun oclSelect ( Int Bool) Int)
(declare-fun Enum0 ( Int) Int)
(declare-fun Enum1 ( Int) Int)
(declare-fun Enum2 ( Int) Int)
(declare-fun container_ ( Int) Int)
(declare-fun oclIncludes ( Int Int) Bool)
(declare-fun type_3462fbcf_4b1f_431c_8056_8557a5ca4a12_Class13 ( Int) Bool)
(declare-fun ObjAt ( Int Int) Int)

;formula(s) generated
(assert (forall ((p Int)) (=> ( type_3462fbcf_4b1f_431c_8056_8557a5ca4a12_Class13 p )  (and (>= ( Enum0 ( obj_6c223fb6_64f6_4bfb_86f1_e2924b5647c6 p )  )  0) (<= ( Enum0 ( obj_6c223fb6_64f6_4bfb_86f1_e2924b5647c6 p )  )  4)))))
(assert (! (forall ((c3_2 Int)(c3_1 Int)) (=> (and ( type_3462fbcf_4b1f_431c_8056_8557a5ca4a12_Class13 c3_1 )  ( type_3462fbcf_4b1f_431c_8056_8557a5ca4a12_Class13 c3_2 ) ) (= ( class13_Class13IntAttr4 ( obj_6c223fb6_64f6_4bfb_86f1_e2924b5647c6 c3_1 )  )  ( class13_Class13IntAttr6 ( obj_6c223fb6_64f6_4bfb_86f1_e2924b5647c6 c3_2 )  ) ))):named l0))
(assert (! (forall ((v Int)) (=> ( type_3462fbcf_4b1f_431c_8056_8557a5ca4a12_Class13 v )  (not (= ( Enum0 ( obj_6c223fb6_64f6_4bfb_86f1_e2924b5647c6 v )  )  2) ))):named l1))
(assert (! (or (forall ((v Int)) (=> ( type_3462fbcf_4b1f_431c_8056_8557a5ca4a12_Class13 v )  ( class13_Class13BoolAttr0 ( obj_6c223fb6_64f6_4bfb_86f1_e2924b5647c6 v )  ) )) (forall ((v Int)) (=> ( type_3462fbcf_4b1f_431c_8056_8557a5ca4a12_Class13 v )  ( class13_Class13BoolAttr1 ( obj_6c223fb6_64f6_4bfb_86f1_e2924b5647c6 v )  ) ))):named l2))
(assert (! (forall ((v Int)) (=> ( type_3462fbcf_4b1f_431c_8056_8557a5ca4a12_Class13 v )  (and (= ( class13_Class13IntAttr5 ( obj_6c223fb6_64f6_4bfb_86f1_e2924b5647c6 v )  )  5) (and (forall ((v Int)) (=> ( type_3462fbcf_4b1f_431c_8056_8557a5ca4a12_Class13 v )  (> ( class13_Class13IntAttr4 ( obj_6c223fb6_64f6_4bfb_86f1_e2924b5647c6 v )  )  9))) (forall ((v Int)) (=> ( type_3462fbcf_4b1f_431c_8056_8557a5ca4a12_Class13 v )  (<= ( class13_Class13IntAttr5 ( obj_6c223fb6_64f6_4bfb_86f1_e2924b5647c6 v )  )  1))))))):named l3))
(assert (! (or (forall ((v Int)) (=> ( type_3462fbcf_4b1f_431c_8056_8557a5ca4a12_Class13 v )  (or ( class13_Class13BoolAttr2 ( obj_6c223fb6_64f6_4bfb_86f1_e2924b5647c6 v )  )  (or (forall ((c3_2 Int)(c3_1 Int)) (=> (and ( type_3462fbcf_4b1f_431c_8056_8557a5ca4a12_Class13 c3_1 )  ( type_3462fbcf_4b1f_431c_8056_8557a5ca4a12_Class13 c3_2 ) ) (> ( class13_Class13IntAttr4 ( obj_6c223fb6_64f6_4bfb_86f1_e2924b5647c6 c3_1 )  )  ( class13_Class13IntAttr6 ( obj_6c223fb6_64f6_4bfb_86f1_e2924b5647c6 c3_2 )  ) ))) (forall ((v Int)) (=> ( type_3462fbcf_4b1f_431c_8056_8557a5ca4a12_Class13 v )  ( class13_Class13BoolAttr1 ( obj_6c223fb6_64f6_4bfb_86f1_e2924b5647c6 v )  ) )))))) (forall ((v Int)) (=> ( type_3462fbcf_4b1f_431c_8056_8557a5ca4a12_Class13 v )  (= ( Enum0 ( obj_6c223fb6_64f6_4bfb_86f1_e2924b5647c6 v )  )  3)))):named l4))
(assert (! (or (forall ((v Int)) (=> ( type_3462fbcf_4b1f_431c_8056_8557a5ca4a12_Class13 v )  ( class13_Class13BoolAttr3 ( obj_6c223fb6_64f6_4bfb_86f1_e2924b5647c6 v )  ) )) (forall ((v Int)) (=> ( type_3462fbcf_4b1f_431c_8056_8557a5ca4a12_Class13 v )  ( class13_Class13BoolAttr1 ( obj_6c223fb6_64f6_4bfb_86f1_e2924b5647c6 v )  ) ))):named l5))
(assert (! (forall ((v Int)) (=> ( type_3462fbcf_4b1f_431c_8056_8557a5ca4a12_Class13 v )  (not ( class13_Class13BoolAttr3 ( obj_6c223fb6_64f6_4bfb_86f1_e2924b5647c6 v )  )  ))):named l6))
(assert (! (forall ((c1 Int)) (=> ( type_3462fbcf_4b1f_431c_8056_8557a5ca4a12_Class13 c1 )  (= ( Enum0 ( obj_6c223fb6_64f6_4bfb_86f1_e2924b5647c6 c1 )  )  1))):named l7))
(assert (exists ((o Int)) ( type_3462fbcf_4b1f_431c_8056_8557a5ca4a12_Class13 ( obj_6c223fb6_64f6_4bfb_86f1_e2924b5647c6 o )  ) ))

 ;end of formula 